p edge 13 58
e 1 2
e 1 8
e 1 2
e 1 8
e 2 6
e 2 6
e 3 11
e 3 4
e 3 5
e 3 6
e 3 10
e 3 4
e 3 5
e 3 6
e 3 10
e 3 11
e 4 7
e 4 5
e 4 6
e 4 9
e 4 5
e 4 6
e 4 7
e 4 9
e 5 11
e 5 12
e 5 6
e 5 7
e 5 6
e 5 7
e 5 11
e 5 12
e 6 7
e 6 9
e 6 13
e 6 7
e 6 9
e 6 13
e 7 9
e 7 13
e 7 9
e 7 13
e 8 13
e 8 10
e 8 9
e 8 9
e 8 10
e 8 13
e 9 13
e 9 13
e 10 11
e 10 11
e 11 12
e 11 13
e 11 12
e 11 13
e 12 13
e 12 13
